10	5
0	1	1
1	1	7
2	1	8
3	1	5
4	1	2
5	1	6
6	1	10
7	1	4
8	1	3
9	1	11
10	1	11
11	0
0	0	0	0	0	0	0
1	3	4	0	3	3	4
2	4	0	0	4	4	0
3	4	0	2	4	0	3
4	8	3	0	0	2	5
5	3	1	0	0	0	0
6	5	0	3	2	0	0
7	4	0	4	0	0	0
8	6	0	4	5	0	4
9	9	0	5	0	3	3
10	4	0	0	4	1	5
11	0	0	0	0	0	0
4	7	4	4	5
